;; translated from ./lustre/Gas.vmt
;; original benchmark available at: https://es-static.fbk.eu/people/griggio/ic3ia/index.html
;; author: Alberto Griggio <griggio@fbk.eu>
(set-logic HORN)
(declare-fun state (Int Int Int Int Int Int Int Int Bool Bool Bool Bool Int Int Bool Bool Bool Bool Int Int Int Int Int Int) Bool)
(assert (forall ((|env__AT0| Bool) (|_OK___AT0| Bool) (|call_Age.xite__AT0| Int) (|call_Age2.xite__AT0| Int) (|call_Age3.xite__AT0| Int) (|call_Dursince.xite__AT0| Int) (|call_Age2.Count__AT0| Int) (|call_Dursince.xite2__AT0| Int) (|call_Sofar.Sofar__AT0| Bool) (|call_Age4.xite__AT0| Int) (|param_leak__AT1| Bool) (|call_RaisingEdge.res__AT0| Bool) (|call_Dursince.Count__AT0| Int) (|call_Age4.Count__AT0| Int) (|call_Age3.Count__AT0| Int) (|call_Age3.xite__AT1| Int) (|param__P1___AT0| Bool) (|call_Dursince.xite2__AT1| Int) (|call_Dursince.xite__AT1| Int) (|call_Age4.xite__AT1| Int) (|call_Age.xite__AT1| Int) (|param_leak__AT0| Bool) (|call_Age2.xite__AT1| Int) (|call_Age.flby__AT1| Int) (|call_Age.Count__AT1| Int) (|call_Sofar.flby__AT1| Bool) (|param__P1___AT1| Bool) (|call_RaisingEdge.flby__AT1| Bool) (|call_Age2.flby__AT1| Int) (|call_Age3.flby__AT1| Int) (|call_Dursince.flby__AT1| Int) (|call_Age4.flby__AT1| Int) (|call_RaisingEdge.res__AT1| Bool) (|call_Age2.Count__AT1| Int) (|call_Sofar.Sofar__AT1| Bool) (|env__AT1| Bool) (|_OK___AT1| Bool) (|call_Dursince.Count__AT1| Int) (|call_Age4.Count__AT1| Int) (|call_Age3.Count__AT1| Int) (|call_Age.flby__AT0| Int) (|call_Age.Count__AT0| Int) (|call_Sofar.flby__AT0| Bool) (|call_RaisingEdge.flby__AT0| Bool) (|call_Age2.flby__AT0| Int) (|call_Age3.flby__AT0| Int) (|call_Dursince.flby__AT0| Int) (|call_Age4.flby__AT0| Int)) (=> (let ((.def_71 (= call_Age.flby__AT0 0)))
(let ((.def_69 (<= call_Age.Count__AT0 10)))
(let ((.def_70 (= call_Sofar.flby__AT0 .def_69)))
(let ((.def_72 (and .def_70 .def_71)))
(let ((.def_67 (not call_RaisingEdge.flby__AT0)))
(let ((.def_73 (and .def_67 .def_72)))
(let ((.def_66 (= call_Age2.flby__AT0 0)))
(let ((.def_74 (and .def_66 .def_73)))
(let ((.def_65 (= call_Age3.flby__AT0 0)))
(let ((.def_75 (and .def_65 .def_74)))
(let ((.def_64 (= call_Dursince.flby__AT0 0)))
(let ((.def_76 (and .def_64 .def_75)))
(let ((.def_63 (= call_Age4.flby__AT0 0)))
(let ((.def_77 (and .def_63 .def_76)))
(let ((.def_51 (not call_RaisingEdge.res__AT0)))
(let ((.def_50 (<= 300 call_Age2.Count__AT0)))
(let ((.def_52 (or .def_50 .def_51)))
(let ((.def_53 (and call_Sofar.Sofar__AT0 .def_52)))
(let ((.def_54 (= env__AT0 .def_53)))
(let ((.def_45 (not env__AT0)))
(let ((.def_40 (* (- 2) call_Dursince.Count__AT0)))
(let ((.def_41 (+ call_Age4.Count__AT0 .def_40)))
(let ((.def_42 (<= 0 .def_41)))
(let ((.def_31 (<= call_Age3.Count__AT0 600)))
(let ((.def_43 (or .def_31 .def_42)))
(let ((.def_46 (or .def_43 .def_45)))
(let ((.def_48 (= .def_46 _OK___AT0)))
(let ((.def_55 (and .def_48 .def_54)))
(let ((.def_29 (= call_Age.flby__AT0 call_Age.Count__AT0)))
(let ((.def_56 (and .def_29 .def_55)))
(let ((.def_26 (= call_Sofar.flby__AT0 call_Sofar.Sofar__AT0)))
(let ((.def_57 (and .def_26 .def_56)))
(let ((.def_23 (= call_RaisingEdge.flby__AT0 call_RaisingEdge.res__AT0)))
(let ((.def_58 (and .def_23 .def_57)))
(let ((.def_20 (= call_Age2.flby__AT0 call_Age2.Count__AT0)))
(let ((.def_59 (and .def_20 .def_58)))
(let ((.def_17 (= call_Age3.flby__AT0 call_Age3.Count__AT0)))
(let ((.def_60 (and .def_17 .def_59)))
(let ((.def_14 (= call_Dursince.flby__AT0 call_Dursince.Count__AT0)))
(let ((.def_61 (and .def_14 .def_60)))
(let ((.def_11 (= call_Age4.flby__AT0 call_Age4.Count__AT0)))
(let ((.def_62 (and .def_11 .def_61)))
(let ((.def_78 (and .def_62 .def_77)))
.def_78))))))))))))))))))))))))))))))))))))))))))) (state |call_Age4.flby__AT0| |call_Age4.Count__AT0| |call_Dursince.flby__AT0| |call_Dursince.Count__AT0| |call_Age3.flby__AT0| |call_Age3.Count__AT0| |call_Age2.flby__AT0| |call_Age2.Count__AT0| |call_RaisingEdge.flby__AT0| |call_RaisingEdge.res__AT0| |call_Sofar.flby__AT0| |call_Sofar.Sofar__AT0| |call_Age.flby__AT0| |call_Age.Count__AT0| |env__AT0| |_OK___AT0| |param__P1___AT0| |param_leak__AT0| |call_Age.xite__AT0| |call_Age2.xite__AT0| |call_Age3.xite__AT0| |call_Dursince.xite__AT0| |call_Dursince.xite2__AT0| |call_Age4.xite__AT0|))))
(assert (forall ((|env__AT0| Bool) (|_OK___AT0| Bool) (|call_Age.xite__AT0| Int) (|call_Age2.xite__AT0| Int) (|call_Age3.xite__AT0| Int) (|call_Dursince.xite__AT0| Int) (|call_Age2.Count__AT0| Int) (|call_Dursince.xite2__AT0| Int) (|call_Sofar.Sofar__AT0| Bool) (|call_Age4.xite__AT0| Int) (|param_leak__AT1| Bool) (|call_RaisingEdge.res__AT0| Bool) (|call_Dursince.Count__AT0| Int) (|call_Age4.Count__AT0| Int) (|call_Age3.Count__AT0| Int) (|call_Age3.xite__AT1| Int) (|param__P1___AT0| Bool) (|call_Dursince.xite2__AT1| Int) (|call_Dursince.xite__AT1| Int) (|call_Age4.xite__AT1| Int) (|call_Age.xite__AT1| Int) (|param_leak__AT0| Bool) (|call_Age2.xite__AT1| Int) (|call_Age.flby__AT1| Int) (|call_Age.Count__AT1| Int) (|call_Sofar.flby__AT1| Bool) (|param__P1___AT1| Bool) (|call_RaisingEdge.flby__AT1| Bool) (|call_Age2.flby__AT1| Int) (|call_Age3.flby__AT1| Int) (|call_Dursince.flby__AT1| Int) (|call_Age4.flby__AT1| Int) (|call_RaisingEdge.res__AT1| Bool) (|call_Age2.Count__AT1| Int) (|call_Sofar.Sofar__AT1| Bool) (|env__AT1| Bool) (|_OK___AT1| Bool) (|call_Dursince.Count__AT1| Int) (|call_Age4.Count__AT1| Int) (|call_Age3.Count__AT1| Int) (|call_Age.flby__AT0| Int) (|call_Age.Count__AT0| Int) (|call_Sofar.flby__AT0| Bool) (|call_RaisingEdge.flby__AT0| Bool) (|call_Age2.flby__AT0| Int) (|call_Age3.flby__AT0| Int) (|call_Dursince.flby__AT0| Int) (|call_Age4.flby__AT0| Int)) (=> (and (state |call_Age4.flby__AT0| |call_Age4.Count__AT0| |call_Dursince.flby__AT0| |call_Dursince.Count__AT0| |call_Age3.flby__AT0| |call_Age3.Count__AT0| |call_Age2.flby__AT0| |call_Age2.Count__AT0| |call_RaisingEdge.flby__AT0| |call_RaisingEdge.res__AT0| |call_Sofar.flby__AT0| |call_Sofar.Sofar__AT0| |call_Age.flby__AT0| |call_Age.Count__AT0| |env__AT0| |_OK___AT0| |param__P1___AT0| |param_leak__AT0| |call_Age.xite__AT0| |call_Age2.xite__AT0| |call_Age3.xite__AT0| |call_Dursince.xite__AT0| |call_Dursince.xite2__AT0| |call_Age4.xite__AT0|) (let ((.def_185 (= call_Age3.xite__AT1 0)))
(let ((.def_136 (not param__P1___AT0)))
(let ((.def_186 (or .def_136 .def_185)))
(let ((.def_181 (* (- 1) call_Age3.xite__AT1)))
(let ((.def_182 (+ call_Age3.Count__AT0 .def_181)))
(let ((.def_183 (= .def_182 (- 1))))
(let ((.def_184 (or param__P1___AT0 .def_183)))
(let ((.def_187 (and .def_184 .def_186)))
(let ((.def_179 (= call_Dursince.xite2__AT1 0)))
(let ((.def_180 (or .def_136 .def_179)))
(let ((.def_188 (and .def_180 .def_187)))
(let ((.def_177 (= call_Dursince.xite2__AT1 call_Dursince.xite__AT1)))
(let ((.def_178 (or param__P1___AT0 .def_177)))
(let ((.def_189 (and .def_178 .def_188)))
(let ((.def_173 (* (- 1) call_Age4.xite__AT1)))
(let ((.def_174 (+ call_Age4.Count__AT0 .def_173)))
(let ((.def_175 (= .def_174 (- 1))))
(let ((.def_176 (or param__P1___AT0 .def_175)))
(let ((.def_190 (and .def_176 .def_189)))
(let ((.def_171 (= call_Age4.xite__AT1 0)))
(let ((.def_172 (or .def_136 .def_171)))
(let ((.def_191 (and .def_172 .def_190)))
(let ((.def_164 (= call_Age.xite__AT1 0)))
(let ((.def_165 (or param_leak__AT0 .def_164)))
(let ((.def_160 (* (- 1) call_Age.xite__AT1)))
(let ((.def_161 (+ call_Age.Count__AT0 .def_160)))
(let ((.def_162 (= .def_161 (- 1))))
(let ((.def_152 (not param_leak__AT0)))
(let ((.def_163 (or .def_152 .def_162)))
(let ((.def_166 (and .def_163 .def_165)))
(let ((.def_156 (* (- 1) call_Age2.xite__AT1)))
(let ((.def_157 (+ call_Age2.Count__AT0 .def_156)))
(let ((.def_158 (= .def_157 (- 1))))
(let ((.def_159 (or param_leak__AT0 .def_158)))
(let ((.def_167 (and .def_159 .def_166)))
(let ((.def_154 (= call_Age2.xite__AT1 0)))
(let ((.def_155 (or .def_152 .def_154)))
(let ((.def_168 (and .def_155 .def_167)))
(let ((.def_149 (* (- 1) call_Dursince.xite__AT1)))
(let ((.def_150 (+ call_Dursince.Count__AT0 .def_149)))
(let ((.def_151 (= .def_150 (- 1))))
(let ((.def_153 (or .def_151 .def_152)))
(let ((.def_169 (and .def_153 .def_168)))
(let ((.def_146 (= call_Dursince.Count__AT0 call_Dursince.xite__AT1)))
(let ((.def_148 (or .def_146 param_leak__AT0)))
(let ((.def_170 (and .def_148 .def_169)))
(let ((.def_192 (and .def_170 .def_191)))
(let ((.def_144 (= call_Age.flby__AT1 call_Age.xite__AT1)))
(let ((.def_193 (and .def_144 .def_192)))
(let ((.def_140 (<= call_Age.Count__AT1 10)))
(let ((.def_141 (and call_Sofar.Sofar__AT0 .def_140)))
(let ((.def_142 (= call_Sofar.flby__AT1 .def_141)))
(let ((.def_194 (and .def_142 .def_193)))
(let ((.def_138 (and .def_136 param__P1___AT1)))
(let ((.def_139 (= call_RaisingEdge.flby__AT1 .def_138)))
(let ((.def_195 (and .def_139 .def_194)))
(let ((.def_134 (= call_Age2.flby__AT1 call_Age2.xite__AT1)))
(let ((.def_196 (and .def_134 .def_195)))
(let ((.def_132 (= call_Age3.flby__AT1 call_Age3.xite__AT1)))
(let ((.def_197 (and .def_132 .def_196)))
(let ((.def_130 (= call_Dursince.flby__AT1 call_Dursince.xite2__AT1)))
(let ((.def_198 (and .def_130 .def_197)))
(let ((.def_128 (= call_Age4.flby__AT1 call_Age4.xite__AT1)))
(let ((.def_199 (and .def_128 .def_198)))
(let ((.def_114 (not call_RaisingEdge.res__AT1)))
(let ((.def_113 (<= 300 call_Age2.Count__AT1)))
(let ((.def_115 (or .def_113 .def_114)))
(let ((.def_116 (and call_Sofar.Sofar__AT1 .def_115)))
(let ((.def_117 (= env__AT1 .def_116)))
(let ((.def_109 (not env__AT1)))
(let ((.def_104 (* (- 2) call_Dursince.Count__AT1)))
(let ((.def_105 (+ call_Age4.Count__AT1 .def_104)))
(let ((.def_106 (<= 0 .def_105)))
(let ((.def_100 (<= call_Age3.Count__AT1 600)))
(let ((.def_107 (or .def_100 .def_106)))
(let ((.def_110 (or .def_107 .def_109)))
(let ((.def_112 (= .def_110 _OK___AT1)))
(let ((.def_118 (and .def_112 .def_117)))
(let ((.def_99 (= call_Age.Count__AT1 call_Age.flby__AT1)))
(let ((.def_119 (and .def_99 .def_118)))
(let ((.def_96 (= call_Sofar.Sofar__AT1 call_Sofar.flby__AT1)))
(let ((.def_120 (and .def_96 .def_119)))
(let ((.def_93 (= call_RaisingEdge.res__AT1 call_RaisingEdge.flby__AT1)))
(let ((.def_121 (and .def_93 .def_120)))
(let ((.def_90 (= call_Age2.Count__AT1 call_Age2.flby__AT1)))
(let ((.def_122 (and .def_90 .def_121)))
(let ((.def_87 (= call_Age3.Count__AT1 call_Age3.flby__AT1)))
(let ((.def_123 (and .def_87 .def_122)))
(let ((.def_84 (= call_Dursince.Count__AT1 call_Dursince.flby__AT1)))
(let ((.def_124 (and .def_84 .def_123)))
(let ((.def_81 (= call_Age4.Count__AT1 call_Age4.flby__AT1)))
(let ((.def_125 (and .def_81 .def_124)))
(let ((.def_51 (not call_RaisingEdge.res__AT0)))
(let ((.def_50 (<= 300 call_Age2.Count__AT0)))
(let ((.def_52 (or .def_50 .def_51)))
(let ((.def_53 (and call_Sofar.Sofar__AT0 .def_52)))
(let ((.def_54 (= env__AT0 .def_53)))
(let ((.def_45 (not env__AT0)))
(let ((.def_40 (* (- 2) call_Dursince.Count__AT0)))
(let ((.def_41 (+ call_Age4.Count__AT0 .def_40)))
(let ((.def_42 (<= 0 .def_41)))
(let ((.def_31 (<= call_Age3.Count__AT0 600)))
(let ((.def_43 (or .def_31 .def_42)))
(let ((.def_46 (or .def_43 .def_45)))
(let ((.def_48 (= .def_46 _OK___AT0)))
(let ((.def_55 (and .def_48 .def_54)))
(let ((.def_29 (= call_Age.flby__AT0 call_Age.Count__AT0)))
(let ((.def_56 (and .def_29 .def_55)))
(let ((.def_26 (= call_Sofar.flby__AT0 call_Sofar.Sofar__AT0)))
(let ((.def_57 (and .def_26 .def_56)))
(let ((.def_23 (= call_RaisingEdge.flby__AT0 call_RaisingEdge.res__AT0)))
(let ((.def_58 (and .def_23 .def_57)))
(let ((.def_20 (= call_Age2.flby__AT0 call_Age2.Count__AT0)))
(let ((.def_59 (and .def_20 .def_58)))
(let ((.def_17 (= call_Age3.flby__AT0 call_Age3.Count__AT0)))
(let ((.def_60 (and .def_17 .def_59)))
(let ((.def_14 (= call_Dursince.flby__AT0 call_Dursince.Count__AT0)))
(let ((.def_61 (and .def_14 .def_60)))
(let ((.def_11 (= call_Age4.flby__AT0 call_Age4.Count__AT0)))
(let ((.def_62 (and .def_11 .def_61)))
(let ((.def_126 (and .def_62 .def_125)))
(let ((.def_200 (and .def_126 .def_199)))
.def_200))))))))))))))))))))))))))))))))))))))))))))))))))))))))))))))))))))))))))))))))))))))))))))))))))))))))))))))))))))))))))) (state |call_Age4.flby__AT1| |call_Age4.Count__AT1| |call_Dursince.flby__AT1| |call_Dursince.Count__AT1| |call_Age3.flby__AT1| |call_Age3.Count__AT1| |call_Age2.flby__AT1| |call_Age2.Count__AT1| |call_RaisingEdge.flby__AT1| |call_RaisingEdge.res__AT1| |call_Sofar.flby__AT1| |call_Sofar.Sofar__AT1| |call_Age.flby__AT1| |call_Age.Count__AT1| |env__AT1| |_OK___AT1| |param__P1___AT1| |param_leak__AT1| |call_Age.xite__AT1| |call_Age2.xite__AT1| |call_Age3.xite__AT1| |call_Dursince.xite__AT1| |call_Dursince.xite2__AT1| |call_Age4.xite__AT1|))))
(assert (forall ((|env__AT0| Bool) (|_OK___AT0| Bool) (|call_Age.xite__AT0| Int) (|call_Age2.xite__AT0| Int) (|call_Age3.xite__AT0| Int) (|call_Dursince.xite__AT0| Int) (|call_Age2.Count__AT0| Int) (|call_Dursince.xite2__AT0| Int) (|call_Sofar.Sofar__AT0| Bool) (|call_Age4.xite__AT0| Int) (|param_leak__AT1| Bool) (|call_RaisingEdge.res__AT0| Bool) (|call_Dursince.Count__AT0| Int) (|call_Age4.Count__AT0| Int) (|call_Age3.Count__AT0| Int) (|call_Age3.xite__AT1| Int) (|param__P1___AT0| Bool) (|call_Dursince.xite2__AT1| Int) (|call_Dursince.xite__AT1| Int) (|call_Age4.xite__AT1| Int) (|call_Age.xite__AT1| Int) (|param_leak__AT0| Bool) (|call_Age2.xite__AT1| Int) (|call_Age.flby__AT1| Int) (|call_Age.Count__AT1| Int) (|call_Sofar.flby__AT1| Bool) (|param__P1___AT1| Bool) (|call_RaisingEdge.flby__AT1| Bool) (|call_Age2.flby__AT1| Int) (|call_Age3.flby__AT1| Int) (|call_Dursince.flby__AT1| Int) (|call_Age4.flby__AT1| Int) (|call_RaisingEdge.res__AT1| Bool) (|call_Age2.Count__AT1| Int) (|call_Sofar.Sofar__AT1| Bool) (|env__AT1| Bool) (|_OK___AT1| Bool) (|call_Dursince.Count__AT1| Int) (|call_Age4.Count__AT1| Int) (|call_Age3.Count__AT1| Int) (|call_Age.flby__AT0| Int) (|call_Age.Count__AT0| Int) (|call_Sofar.flby__AT0| Bool) (|call_RaisingEdge.flby__AT0| Bool) (|call_Age2.flby__AT0| Int) (|call_Age3.flby__AT0| Int) (|call_Dursince.flby__AT0| Int) (|call_Age4.flby__AT0| Int)) (=> (state |call_Age4.flby__AT0| |call_Age4.Count__AT0| |call_Dursince.flby__AT0| |call_Dursince.Count__AT0| |call_Age3.flby__AT0| |call_Age3.Count__AT0| |call_Age2.flby__AT0| |call_Age2.Count__AT0| |call_RaisingEdge.flby__AT0| |call_RaisingEdge.res__AT0| |call_Sofar.flby__AT0| |call_Sofar.Sofar__AT0| |call_Age.flby__AT0| |call_Age.Count__AT0| |env__AT0| |_OK___AT0| |param__P1___AT0| |param_leak__AT0| |call_Age.xite__AT0| |call_Age2.xite__AT0| |call_Age3.xite__AT0| |call_Dursince.xite__AT0| |call_Dursince.xite2__AT0| |call_Age4.xite__AT0|) _OK___AT0)))
(check-sat)
